% Logging successfully configured
%%%mzn-stat: initTime=0.06790863
%%%mzn-stat: objective=775
%%%mzn-stat: nodes=120947
%%%mzn-stat: restarts=0
%%%mzn-stat: peakDepth=3330
%%%mzn-stat: solveTime=53.718669717
%%%mzn-stat: variables=4274
%%%mzn-stat: propagators=14960
%%%mzn-stat: failures=40246
%%%mzn-stat: propagations=59761804
%%%mzn-stat: nogoods=40246
%%%mzn-stat: numAtomicConstraintsPropagated=0
%%%mzn-stat: circuitNumber11176PropagationsThatFoundConflict=13808
%%%mzn-stat: circuitNumber11176TotalFixedEdgesAtConflict=1935954
%%%mzn-stat: circuitNumber11176NumberOfConflicts=13808
%%%mzn-stat: circuitNumber11176PropagationsThatPruned=46691
%%%mzn-stat: circuitNumber11176PropagationsTotal=182705
%%%mzn-stat: AverageConflictSize=17.278710927794066
%%%mzn-stat: NumUnitNogoodsLearned=0
%%%mzn-stat: AverageLearnedNogoodLength=68.45721313919395
%%%mzn-stat: AverageBacktrackAmount=0
%%%mzn-stat: AverageLbd=56.43743477612682
%%%mzn-stat: 2AutonomousSearchNumBackupCalled=3197
%%%mzn-stat: 2AutonomousSearchNumPredicatesRemoved=0
%%%mzn-stat: 2AutonomousSearchNumCalls=3198
%%%mzn-stat: 2AutonomousSearchNumPredicatesAdded=3537
%%%mzn-stat: 2AutonomousSearchAverageSizeOfHeap=1.1060037523452158
%%%mzn-stat: 2AutonomousSearchNumAssignedPredicatesEncountered=3537
%%%mzn-stat-end
maxleg = 775;
succ = array1d(1..150,[3, 12, 15, 8, 9, 32, 20, 21, 14, 22, 13, 1, 2, 18, 36, 11, 16, 19, 28, 23, 5, 26, 27, 4, 31, 35, 45, 25, 30, 33, 29, 7, 34, 57, 41, 49, 6, 24, 37, 17, 64, 46, 39, 38, 47, 51, 44, 40, 55, 53, 54, 43, 42, 61, 56, 58, 69, 62, 66, 50, 67, 63, 74, 68, 52, 85, 65, 71, 75, 73, 76, 48, 82, 70, 80, 84, 60, 88, 72, 90, 77, 93, 79, 106, 87, 92, 98, 94, 83, 108, 89, 59, 100, 96, 10, 97, 99, 95, 101, 81, 103, 110, 105, 111, 112, 113, 78, 120, 91, 121, 118, 132, 114, 147, 122, 102, 107, 119, 123, 124, 139, 125, 140, 130, 127, 109, 129, 116, 131, 133, 126, 134, 137, 142, 104, 135, 144, 86, 146, 141, 150, 145, 117, 148, 149, 143, 136, 138, 115, 128]);
% time elapsed: 57.93 s
----------
%%%mzn-stat: initTime=0.06790863
%%%mzn-stat: objective=370
%%%mzn-stat: nodes=125548
%%%mzn-stat: restarts=0
%%%mzn-stat: peakDepth=3330
%%%mzn-stat: solveTime=53.9139667
%%%mzn-stat: variables=4274
%%%mzn-stat: propagators=14960
%%%mzn-stat: failures=40560
%%%mzn-stat: propagations=60221790
%%%mzn-stat: nogoods=40560
%%%mzn-stat: numAtomicConstraintsPropagated=0
%%%mzn-stat: circuitNumber11176PropagationsThatFoundConflict=13821
%%%mzn-stat: circuitNumber11176TotalFixedEdgesAtConflict=1937686
%%%mzn-stat: circuitNumber11176NumberOfConflicts=13821
%%%mzn-stat: circuitNumber11176PropagationsThatPruned=46954
%%%mzn-stat: circuitNumber11176PropagationsTotal=184239
%%%mzn-stat: AverageConflictSize=17.206089743589743
%%%mzn-stat: NumUnitNogoodsLearned=0
%%%mzn-stat: AverageLearnedNogoodLength=68.10431459566075
%%%mzn-stat: AverageBacktrackAmount=0
%%%mzn-stat: AverageLbd=56.08984220907298
%%%mzn-stat: 2AutonomousSearchNumBackupCalled=6392
%%%mzn-stat: 2AutonomousSearchNumPredicatesRemoved=0
%%%mzn-stat: 2AutonomousSearchNumCalls=6394
%%%mzn-stat: 2AutonomousSearchNumPredicatesAdded=6065
%%%mzn-stat: 2AutonomousSearchAverageSizeOfHeap=1.1304347826086956
%%%mzn-stat: 2AutonomousSearchNumAssignedPredicatesEncountered=7228
%%%mzn-stat-end
maxleg = 370;
succ = array1d(1..150,[3, 12, 15, 8, 9, 32, 20, 21, 14, 22, 13, 1, 2, 18, 36, 11, 16, 19, 28, 23, 5, 26, 27, 4, 31, 35, 45, 25, 30, 33, 29, 7, 34, 57, 41, 49, 6, 24, 37, 17, 64, 46, 39, 38, 47, 51, 44, 40, 55, 53, 54, 43, 42, 61, 56, 58, 69, 62, 66, 50, 67, 63, 74, 68, 52, 85, 65, 71, 75, 73, 76, 48, 82, 70, 80, 84, 60, 88, 72, 90, 77, 93, 79, 106, 87, 92, 98, 94, 83, 108, 89, 120, 100, 96, 10, 97, 99, 95, 101, 81, 103, 110, 59, 111, 112, 113, 78, 124, 91, 114, 119, 121, 132, 139, 122, 102, 107, 104, 123, 130, 142, 125, 140, 133, 127, 109, 129, 116, 131, 118, 126, 105, 137, 117, 136, 128, 144, 86, 145, 150, 135, 143, 149, 148, 146, 134, 141, 138, 115, 147]);
% time elapsed: 58.14 s
----------
%%%mzn-stat: initTime=0.06790863
%%%mzn-stat: objective=346
%%%mzn-stat: nodes=129983
%%%mzn-stat: restarts=0
%%%mzn-stat: peakDepth=3330
%%%mzn-stat: solveTime=54.101837001
%%%mzn-stat: variables=4274
%%%mzn-stat: propagators=14960
%%%mzn-stat: failures=40893
%%%mzn-stat: propagations=60671068
%%%mzn-stat: nogoods=40893
%%%mzn-stat: numAtomicConstraintsPropagated=0
%%%mzn-stat: circuitNumber11176PropagationsThatFoundConflict=13821
%%%mzn-stat: circuitNumber11176TotalFixedEdgesAtConflict=1937686
%%%mzn-stat: circuitNumber11176NumberOfConflicts=13821
%%%mzn-stat: circuitNumber11176PropagationsThatPruned=47348
%%%mzn-stat: circuitNumber11176PropagationsTotal=185823
%%%mzn-stat: AverageConflictSize=17.09899004719634
%%%mzn-stat: NumUnitNogoodsLearned=0
%%%mzn-stat: AverageLearnedNogoodLength=67.72582104516665
%%%mzn-stat: AverageBacktrackAmount=0
%%%mzn-stat: AverageLbd=55.71672413371482
%%%mzn-stat: 2AutonomousSearchNumBackupCalled=9559
%%%mzn-stat: 2AutonomousSearchNumPredicatesRemoved=0
%%%mzn-stat: 2AutonomousSearchNumCalls=9562
%%%mzn-stat: 2AutonomousSearchNumPredicatesAdded=7357
%%%mzn-stat: 2AutonomousSearchAverageSizeOfHeap=1.143380046015478
%%%mzn-stat: 2AutonomousSearchNumAssignedPredicatesEncountered=10933
%%%mzn-stat-end
maxleg = 346;
succ = array1d(1..150,[3, 12, 15, 8, 9, 32, 20, 21, 14, 22, 13, 1, 2, 18, 36, 11, 16, 19, 28, 23, 5, 26, 27, 4, 31, 35, 45, 25, 30, 33, 29, 7, 34, 57, 41, 49, 6, 24, 37, 17, 64, 46, 39, 38, 47, 51, 44, 40, 55, 53, 54, 43, 42, 61, 56, 58, 69, 62, 66, 50, 67, 63, 74, 68, 52, 85, 65, 71, 75, 73, 76, 48, 82, 70, 80, 84, 60, 88, 72, 90, 77, 93, 79, 106, 87, 92, 98, 96, 83, 94, 89, 120, 100, 138, 10, 97, 99, 95, 101, 81, 103, 110, 59, 111, 112, 113, 78, 124, 91, 114, 119, 121, 132, 139, 122, 102, 107, 104, 123, 108, 142, 125, 140, 118, 127, 109, 129, 116, 131, 86, 126, 105, 130, 117, 136, 128, 133, 148, 145, 150, 135, 143, 149, 137, 146, 134, 141, 144, 115, 147]);
% time elapsed: 58.34 s
----------
%%%mzn-stat: initTime=0.06790863
%%%mzn-stat: objective=337
%%%mzn-stat: nodes=151661
%%%mzn-stat: restarts=1
%%%mzn-stat: peakDepth=3349
%%%mzn-stat: solveTime=64.251698106
%%%mzn-stat: variables=4274
%%%mzn-stat: propagators=14960
%%%mzn-stat: failures=47434
%%%mzn-stat: propagations=68405590
%%%mzn-stat: nogoods=47434
%%%mzn-stat: numAtomicConstraintsPropagated=0
%%%mzn-stat: circuitNumber11176PropagationsThatFoundConflict=20350
%%%mzn-stat: circuitNumber11176TotalFixedEdgesAtConflict=2857961
%%%mzn-stat: circuitNumber11176NumberOfConflicts=20350
%%%mzn-stat: circuitNumber11176PropagationsThatPruned=51660
%%%mzn-stat: circuitNumber11176PropagationsTotal=213008
%%%mzn-stat: AverageConflictSize=27.31797866509255
%%%mzn-stat: NumUnitNogoodsLearned=0
%%%mzn-stat: AverageLearnedNogoodLength=70.59008306278197
%%%mzn-stat: AverageBacktrackAmount=0
%%%mzn-stat: AverageLbd=59.463443943163135
%%%mzn-stat: 2AutonomousSearchNumBackupCalled=12653
%%%mzn-stat: 2AutonomousSearchNumPredicatesRemoved=0
%%%mzn-stat: 2AutonomousSearchNumCalls=12909
%%%mzn-stat: 2AutonomousSearchNumPredicatesAdded=9041
%%%mzn-stat: 2AutonomousSearchAverageSizeOfHeap=45.83716786737935
%%%mzn-stat: 2AutonomousSearchNumAssignedPredicatesEncountered=22253
%%%mzn-stat-end
maxleg = 337;
succ = array1d(1..150,[3, 12, 15, 8, 9, 32, 20, 21, 14, 22, 13, 1, 2, 18, 36, 11, 16, 19, 28, 23, 5, 26, 27, 4, 31, 35, 45, 25, 30, 33, 29, 7, 34, 57, 41, 49, 6, 24, 37, 17, 64, 46, 39, 38, 47, 51, 44, 40, 55, 53, 54, 43, 42, 61, 70, 58, 69, 62, 66, 50, 67, 63, 77, 68, 52, 85, 65, 71, 75, 73, 76, 48, 82, 56, 80, 84, 93, 88, 72, 90, 60, 74, 79, 106, 87, 92, 98, 96, 83, 94, 89, 120, 100, 138, 10, 97, 99, 95, 101, 81, 103, 110, 59, 111, 112, 113, 78, 124, 91, 114, 119, 121, 132, 139, 122, 102, 107, 104, 123, 108, 142, 125, 140, 118, 127, 109, 129, 116, 131, 86, 126, 105, 130, 117, 136, 128, 133, 148, 145, 150, 135, 143, 149, 137, 146, 134, 141, 144, 115, 147]);
% time elapsed: 68.50 s
----------
%%%mzn-stat: initTime=0.06790863
%%%mzn-stat: objective=328
%%%mzn-stat: nodes=154992
%%%mzn-stat: restarts=1
%%%mzn-stat: peakDepth=3349
%%%mzn-stat: solveTime=64.267683875
%%%mzn-stat: variables=4274
%%%mzn-stat: propagators=14960
%%%mzn-stat: failures=47434
%%%mzn-stat: propagations=68433969
%%%mzn-stat: nogoods=47434
%%%mzn-stat: numAtomicConstraintsPropagated=0
%%%mzn-stat: circuitNumber11176PropagationsThatFoundConflict=20350
%%%mzn-stat: circuitNumber11176TotalFixedEdgesAtConflict=2857961
%%%mzn-stat: circuitNumber11176NumberOfConflicts=20350
%%%mzn-stat: circuitNumber11176PropagationsThatPruned=51663
%%%mzn-stat: circuitNumber11176PropagationsTotal=213143
%%%mzn-stat: AverageConflictSize=27.31797866509255
%%%mzn-stat: NumUnitNogoodsLearned=0
%%%mzn-stat: AverageLearnedNogoodLength=70.59008306278197
%%%mzn-stat: AverageBacktrackAmount=0
%%%mzn-stat: AverageLbd=59.463443943163135
%%%mzn-stat: 2AutonomousSearchNumBackupCalled=15851
%%%mzn-stat: 2AutonomousSearchNumPredicatesRemoved=0
%%%mzn-stat: 2AutonomousSearchNumCalls=16108
%%%mzn-stat: 2AutonomousSearchNumPredicatesAdded=9041
%%%mzn-stat: 2AutonomousSearchAverageSizeOfHeap=36.976285075738765
%%%mzn-stat: 2AutonomousSearchNumAssignedPredicatesEncountered=26155
%%%mzn-stat-end
maxleg = 328;
succ = array1d(1..150,[3, 12, 15, 8, 9, 32, 20, 21, 14, 22, 13, 1, 2, 18, 36, 11, 16, 19, 28, 23, 5, 26, 27, 4, 31, 35, 45, 25, 30, 33, 29, 7, 34, 57, 41, 49, 6, 24, 37, 17, 68, 46, 39, 38, 47, 51, 44, 40, 55, 53, 54, 43, 42, 61, 56, 58, 69, 62, 66, 50, 67, 63, 74, 10, 52, 85, 65, 71, 75, 73, 76, 48, 82, 77, 80, 70, 60, 88, 72, 90, 79, 93, 81, 106, 87, 92, 98, 96, 83, 94, 89, 120, 100, 138, 64, 97, 99, 95, 101, 104, 103, 110, 59, 111, 112, 113, 78, 124, 91, 84, 119, 121, 114, 139, 105, 102, 109, 123, 135, 108, 132, 107, 126, 118, 122, 131, 125, 116, 127, 86, 129, 134, 130, 117, 136, 141, 133, 148, 142, 150, 140, 143, 146, 137, 149, 145, 128, 144, 115, 147]);
% time elapsed: 68.52 s
----------
%%%mzn-stat: initTime=0.06790863
%%%mzn-stat: objective=323
%%%mzn-stat: nodes=158669
%%%mzn-stat: restarts=2
%%%mzn-stat: peakDepth=3411
%%%mzn-stat: solveTime=64.488589501
%%%mzn-stat: variables=4274
%%%mzn-stat: propagators=14960
%%%mzn-stat: failures=47559
%%%mzn-stat: propagations=68674389
%%%mzn-stat: nogoods=47559
%%%mzn-stat: numAtomicConstraintsPropagated=0
%%%mzn-stat: circuitNumber11176PropagationsThatFoundConflict=20454
%%%mzn-stat: circuitNumber11176TotalFixedEdgesAtConflict=2872170
%%%mzn-stat: circuitNumber11176NumberOfConflicts=20454
%%%mzn-stat: circuitNumber11176PropagationsThatPruned=51835
%%%mzn-stat: circuitNumber11176PropagationsTotal=213799
%%%mzn-stat: AverageConflictSize=27.426796189995585
%%%mzn-stat: NumUnitNogoodsLearned=0
%%%mzn-stat: AverageLearnedNogoodLength=70.61895750541433
%%%mzn-stat: AverageBacktrackAmount=0
%%%mzn-stat: AverageLbd=59.498706869362266
%%%mzn-stat: 2AutonomousSearchNumBackupCalled=18988
%%%mzn-stat: 2AutonomousSearchNumPredicatesRemoved=0
%%%mzn-stat: 2AutonomousSearchNumCalls=19518
%%%mzn-stat: 2AutonomousSearchNumPredicatesAdded=11530
%%%mzn-stat: 2AutonomousSearchAverageSizeOfHeap=62.145711650783895
%%%mzn-stat: 2AutonomousSearchNumAssignedPredicatesEncountered=39052
%%%mzn-stat-end
maxleg = 323;
succ = array1d(1..150,[36, 12, 110, 8, 9, 32, 20, 21, 14, 22, 13, 1, 2, 18, 3, 11, 16, 19, 28, 23, 5, 26, 27, 4, 31, 35, 45, 25, 30, 33, 29, 7, 34, 57, 41, 49, 6, 24, 37, 15, 68, 46, 39, 38, 47, 51, 44, 17, 55, 53, 54, 43, 42, 61, 56, 58, 69, 62, 66, 50, 67, 63, 74, 10, 52, 85, 65, 71, 75, 73, 76, 48, 82, 77, 80, 70, 60, 88, 72, 90, 79, 93, 81, 106, 87, 92, 98, 96, 83, 94, 89, 120, 100, 138, 64, 97, 99, 95, 101, 104, 103, 40, 59, 111, 112, 113, 78, 124, 91, 84, 119, 121, 114, 139, 105, 102, 109, 123, 135, 108, 132, 107, 126, 118, 122, 131, 125, 116, 127, 86, 129, 134, 130, 117, 136, 141, 133, 148, 142, 150, 140, 143, 146, 137, 149, 145, 128, 144, 115, 147]);
% time elapsed: 68.77 s
----------
%%%mzn-stat: initTime=0.06790863
%%%mzn-stat: objective=305
%%%mzn-stat: nodes=161936
%%%mzn-stat: restarts=2
%%%mzn-stat: peakDepth=3411
%%%mzn-stat: solveTime=64.504694624
%%%mzn-stat: variables=4274
%%%mzn-stat: propagators=14960
%%%mzn-stat: failures=47559
%%%mzn-stat: propagations=68702766
%%%mzn-stat: nogoods=47559
%%%mzn-stat: numAtomicConstraintsPropagated=0
%%%mzn-stat: circuitNumber11176PropagationsThatFoundConflict=20454
%%%mzn-stat: circuitNumber11176TotalFixedEdgesAtConflict=2872170
%%%mzn-stat: circuitNumber11176NumberOfConflicts=20454
%%%mzn-stat: circuitNumber11176PropagationsThatPruned=51838
%%%mzn-stat: circuitNumber11176PropagationsTotal=213933
%%%mzn-stat: AverageConflictSize=27.426796189995585
%%%mzn-stat: NumUnitNogoodsLearned=0
%%%mzn-stat: AverageLearnedNogoodLength=70.61895750541433
%%%mzn-stat: AverageBacktrackAmount=0
%%%mzn-stat: AverageLbd=59.498706869362266
%%%mzn-stat: 2AutonomousSearchNumBackupCalled=22124
%%%mzn-stat: 2AutonomousSearchNumPredicatesRemoved=0
%%%mzn-stat: 2AutonomousSearchNumCalls=22655
%%%mzn-stat: 2AutonomousSearchNumPredicatesAdded=11530
%%%mzn-stat: 2AutonomousSearchAverageSizeOfHeap=53.764555285808875
%%%mzn-stat: 2AutonomousSearchNumAssignedPredicatesEncountered=44128
%%%mzn-stat-end
maxleg = 305;
succ = array1d(1..150,[3, 12, 15, 8, 9, 32, 20, 21, 14, 22, 13, 1, 2, 18, 36, 11, 16, 19, 28, 23, 5, 26, 27, 4, 31, 35, 45, 25, 30, 33, 29, 7, 34, 57, 41, 49, 6, 24, 37, 17, 68, 46, 39, 38, 47, 51, 44, 40, 55, 53, 54, 43, 42, 61, 56, 58, 69, 62, 66, 50, 67, 63, 74, 10, 52, 85, 65, 71, 75, 73, 76, 48, 82, 77, 80, 70, 60, 88, 72, 90, 79, 93, 81, 106, 87, 92, 98, 96, 83, 94, 89, 120, 100, 138, 64, 97, 99, 95, 101, 104, 103, 114, 59, 111, 112, 110, 78, 124, 91, 113, 119, 121, 132, 84, 105, 102, 109, 123, 135, 108, 139, 107, 126, 118, 122, 131, 125, 116, 127, 86, 129, 134, 130, 142, 136, 141, 133, 148, 146, 150, 140, 145, 117, 137, 149, 143, 128, 144, 115, 147]);
% time elapsed: 68.79 s
----------
%%%mzn-stat: initTime=0.06790863
%%%mzn-stat: objective=305
%%%mzn-stat: nodes=5003844
%%%mzn-stat: restarts=2
%%%mzn-stat: peakDepth=3411
%%%mzn-stat: solveTime=1796.150758216
%%%mzn-stat: variables=4274
%%%mzn-stat: propagators=14960
%%%mzn-stat: failures=2006986
%%%mzn-stat: propagations=2214374411
%%%mzn-stat: nogoods=2006986
%%%mzn-stat: numAtomicConstraintsPropagated=0
%%%mzn-stat: circuitNumber11176PropagationsThatFoundConflict=84682
%%%mzn-stat: circuitNumber11176TotalFixedEdgesAtConflict=11273333
%%%mzn-stat: circuitNumber11176NumberOfConflicts=84682
%%%mzn-stat: circuitNumber11176PropagationsThatPruned=438469
%%%mzn-stat: circuitNumber11176PropagationsTotal=5131002
%%%mzn-stat: AverageConflictSize=26.051012313987243
%%%mzn-stat: NumUnitNogoodsLearned=0
%%%mzn-stat: AverageLearnedNogoodLength=70.47579803745516
%%%mzn-stat: AverageBacktrackAmount=0
%%%mzn-stat: AverageLbd=33.19142435472893
%%%mzn-stat: 2AutonomousSearchNumBackupCalled=22124
%%%mzn-stat: 2AutonomousSearchNumPredicatesRemoved=0
%%%mzn-stat: 2AutonomousSearchNumCalls=22655
%%%mzn-stat: 2AutonomousSearchNumPredicatesAdded=16060
%%%mzn-stat: 2AutonomousSearchAverageSizeOfHeap=53.764555285808875
%%%mzn-stat: 2AutonomousSearchNumAssignedPredicatesEncountered=44128
%%%mzn-stat-end
